tools/consynth/Benchmarks/tmp.smt
(benchmark name_removed
:logic QF_NIA
:extrafuns(
(t1 Int)
(t2 Int)
(t3 Int)
(t4 Int)
(t5 Int)
(t6 Int)
(t7 Int)
(t8 Int)
(t9 Int)
(t10 Int)
)
:formula (and true (<= t4 1) (>= t4 0) (<= t3 1) (>= t3 0) (<= t2 1) (>= t2 0) (<= t1 1) (>= t1 0) (<= t10 1) (>= t10 0) (<= t9 1) (>= t9 0) (<= t8 1) (>= t8 0) (<= t7 1) (>= t7 0) (<= t6 1) (>= t6 0) (<= t5 1) (>= t5 0) true))
